p cnf 48 148
1 2 3 4 0
5 6 7 8 0
9 10 11 12 0
13 14 15 16 0
17 18 19 20 0
21 22 23 24 0
25 26 27 28 0
29 30 31 32 0
33 34 35 36 0
37 38 39 40 0
41 42 43 44 0
45 46 47 48 0
-1 -2 0
-1 -3 0
-1 -4 0
-2 -3 0
-2 -4 0
-3 -4 0
-5 -6 0
-5 -7 0
-5 -8 0
-6 -7 0
-6 -8 0
-7 -8 0
-9 -10 0
-9 -11 0
-9 -12 0
-10 -11 0
-10 -12 0
-11 -12 0
-13 -14 0
-13 -15 0
-13 -16 0
-14 -15 0
-14 -16 0
-15 -16 0
-17 -18 0
-17 -19 0
-17 -20 0
-18 -19 0
-18 -20 0
-19 -20 0
-21 -22 0
-21 -23 0
-21 -24 0
-22 -23 0
-22 -24 0
-23 -24 0
-25 -26 0
-25 -27 0
-25 -28 0
-26 -27 0
-26 -28 0
-27 -28 0
-29 -30 0
-29 -31 0
-29 -32 0
-30 -31 0
-30 -32 0
-31 -32 0
-33 -34 0
-33 -35 0
-33 -36 0
-34 -35 0
-34 -36 0
-35 -36 0
-37 -38 0
-37 -39 0
-37 -40 0
-38 -39 0
-38 -40 0
-39 -40 0
-41 -42 0
-41 -43 0
-41 -44 0
-42 -43 0
-42 -44 0
-43 -44 0
-45 -46 0
-45 -47 0
-45 -48 0
-46 -47 0
-46 -48 0
-47 -48 0
-13 -5 0
-14 -6 0
-15 -7 0
-16 -8 0
-13 -5 0
-14 -6 0
-15 -7 0
-16 -8 0
-13 -5 0
-14 -6 0
-15 -7 0
-16 -8 0
-13 -5 0
-14 -6 0
-15 -7 0
-16 -8 0
-13 -9 0
-14 -10 0
-15 -11 0
-16 -12 0
-13 -9 0
-14 -10 0
-15 -11 0
-16 -12 0
-13 -9 0
-14 -10 0
-15 -11 0
-16 -12 0
-13 -9 0
-14 -10 0
-15 -11 0
-16 -12 0
-9 -13 0
-10 -14 0
-11 -15 0
-12 -16 0
-9 -13 0
-10 -14 0
-11 -15 0
-12 -16 0
-9 -13 0
-10 -14 0
-11 -15 0
-12 -16 0
-9 -13 0
-10 -14 0
-11 -15 0
-12 -16 0
-5 -13 0
-6 -14 0
-7 -15 0
-8 -16 0
-5 -13 0
-6 -14 0
-7 -15 0
-8 -16 0
-5 -13 0
-6 -14 0
-7 -15 0
-8 -16 0
-5 -13 0
-6 -14 0
-7 -15 0
-8 -16 0
